objective value:                                10972
t_x_0                                               1 	(obj:27)
t_x_1                                               1 	(obj:49)
t_x_5                                               1 	(obj:8)
t_x_9                                               1 	(obj:29)
t_x_10                                              1 	(obj:21)
t_x_12                                              1 	(obj:78)
t_x_13                                              1 	(obj:15)
t_x_16                                              1 	(obj:14)
t_x_17                                              1 	(obj:30)
t_x_19                                              1 	(obj:21)
t_x_20                                              1 	(obj:19)
t_x_25                                              1 	(obj:27)
t_x_26                                              1 	(obj:26)
t_x_27                                              1 	(obj:53)
t_x_29                                              1 	(obj:21)
t_x_32                                              1 	(obj:27)
t_x_34                                              1 	(obj:9)
t_x_39                                              1 	(obj:9)
t_x_40                                              1 	(obj:0)
t_x_52                                              1 	(obj:5)
t_x_53                                              1 	(obj:8)
t_x_54                                              1 	(obj:16)
t_x_56                                              1 	(obj:59)
t_x_57                                              1 	(obj:17)
t_x_59                                              1 	(obj:1)
t_x_60                                              1 	(obj:37)
t_x_61                                              1 	(obj:23)
t_x_62                                              1 	(obj:41)
t_x_64                                              1 	(obj:24)
t_x_71                                              1 	(obj:32)
t_x_72                                              1 	(obj:44)
t_x_74                                              1 	(obj:3)
t_x_75                                              1 	(obj:5)
t_x_76                                              1 	(obj:38)
t_x_84                                              1 	(obj:7)
t_x_94                                              1 	(obj:28)
t_x_96                                              1 	(obj:21)
t_x_107                                             1 	(obj:4)
t_x_109                                             1 	(obj:0)
t_x_114                                             1 	(obj:7)
t_x_115                                             1 	(obj:1)
t_x_116                                             1 	(obj:56)
t_x_120                                             1 	(obj:3)
t_x_124                                             1 	(obj:5)
t_x_132                                             1 	(obj:2)
t_x_137                                             1 	(obj:55)
t_x_138                                             1 	(obj:24)
t_x_152                                             1 	(obj:20)
t_x_153                                             1 	(obj:33)
t_x_155                                             1 	(obj:16)
t_x_156                                             1 	(obj:4)
t_x_159                                             1 	(obj:30)
t_x_161                                             1 	(obj:35)
t_x_165                                             1 	(obj:28)
t_x_168                                             1 	(obj:32)
t_x_169                                             1 	(obj:10)
t_x_170                                             1 	(obj:54)
t_x_172                                             1 	(obj:27)
t_x_175                                             1 	(obj:5)
t_x_177                                             1 	(obj:48)
t_x_178                                             1 	(obj:1)
t_x_189                                             1 	(obj:0)
t_x_191                                             1 	(obj:0)
t_x_194                                             1 	(obj:13)
t_x_196                                             1 	(obj:33)
t_x_200                                             1 	(obj:11)
t_x_205                                             1 	(obj:10)
t_x_209                                             1 	(obj:6)
t_x_217                                             1 	(obj:8)
t_x_219                                             1 	(obj:4)
t_x_223                                             1 	(obj:19)
t_x_226                                             1 	(obj:9)
t_x_231                                             1 	(obj:34)
t_x_239                                             1 	(obj:24)
t_x_241                                             1 	(obj:33)
t_x_242                                             1 	(obj:4)
t_x_252                                             1 	(obj:28)
t_x_257                                             1 	(obj:3)
t_x_258                                             1 	(obj:56)
t_x_267                                             1 	(obj:23)
t_x_268                                             1 	(obj:50)
t_x_270                                             1 	(obj:16)
t_x_275                                             1 	(obj:10)
t_x_277                                             1 	(obj:36)
t_x_281                                             1 	(obj:3)
t_x_282                                             1 	(obj:6)
t_x_283                                             1 	(obj:29)
t_x_284                                             1 	(obj:15)
t_x_288                                             1 	(obj:4)
t_x_290                                             1 	(obj:15)
t_x_293                                             1 	(obj:11)
t_x_300                                             1 	(obj:7)
t_x_301                                             1 	(obj:7)
t_x_302                                             1 	(obj:40)
t_x_307                                             1 	(obj:8)
t_x_315                                             1 	(obj:8)
t_x_317                                             1 	(obj:29)
t_x_318                                             1 	(obj:13)
t_x_319                                             1 	(obj:17)
t_x_320                                             1 	(obj:0)
t_x_322                                             1 	(obj:79)
t_x_323                                             1 	(obj:13)
t_x_327                                             1 	(obj:13)
t_x_331                                             1 	(obj:15)
t_x_335                                             1 	(obj:4)
t_x_336                                             1 	(obj:7)
t_x_345                                             1 	(obj:42)
t_x_347                                             1 	(obj:8)
t_x_348                                             1 	(obj:24)
t_x_351                                             1 	(obj:17)
t_x_353                                             1 	(obj:8)
t_x_356                                             1 	(obj:3)
t_x_361                                             1 	(obj:3)
t_x_362                                             1 	(obj:22)
t_x_363                                             1 	(obj:28)
t_x_364                                             1 	(obj:0)
t_x_365                                             1 	(obj:5)
t_x_367                                             1 	(obj:0)
t_x_369                                             1 	(obj:45)
t_x_371                                             1 	(obj:18)
t_x_376                                             1 	(obj:12)
t_x_379                                             1 	(obj:28)
t_x_383                                             1 	(obj:16)
t_x_386                                             1 	(obj:1)
t_x_388                                             1 	(obj:16)
t_x_389                                             1 	(obj:22)
t_x_392                                             1 	(obj:1)
t_x_395                                             1 	(obj:40)
t_x_396                                             1 	(obj:10)
t_x_400                                             1 	(obj:2)
t_x_403                                             1 	(obj:36)
t_x_408                                             1 	(obj:31)
t_x_418                                             1 	(obj:5)
t_x_419                                             1 	(obj:2)
t_x_429                                             1 	(obj:36)
t_x_432                                             1 	(obj:24)
t_x_433                                             1 	(obj:50)
t_x_436                                             1 	(obj:11)
t_x_445                                             1 	(obj:12)
t_x_452                                             1 	(obj:35)
t_x_458                                             1 	(obj:18)
t_x_467                                             1 	(obj:14)
t_x_483                                             1 	(obj:24)
t_x_487                                             1 	(obj:20)
t_x_491                                             1 	(obj:10)
t_x_493                                             1 	(obj:22)
t_x_514                                             1 	(obj:13)
t_x_526                                             1 	(obj:25)
t_x_527                                             1 	(obj:14)
t_x_536                                             1 	(obj:14)
t_x_537                                             1 	(obj:20)
t_x_539                                             1 	(obj:23)
t_x_541                                             1 	(obj:44)
t_x_542                                             1 	(obj:5)
t_x_543                                             1 	(obj:59)
t_x_547                                             1 	(obj:5)
t_x_548                                             1 	(obj:24)
t_x_553                                             1 	(obj:11)
t_x_554                                             1 	(obj:37)
t_x_557                                             1 	(obj:19)
t_x_558                                             1 	(obj:32)
t_x_562                                             1 	(obj:11)
t_x_566                                             1 	(obj:45)
t_x_569                                             1 	(obj:3)
t_x_570                                             1 	(obj:15)
t_x_587                                             1 	(obj:9)
t_x_590                                             1 	(obj:2)
t_x_593                                             1 	(obj:1)
t_x_594                                             1 	(obj:1)
t_x_596                                             1 	(obj:18)
t_x_601                                             1 	(obj:2)
t_x_607                                             1 	(obj:42)
t_x_608                                             1 	(obj:5)
t_x_609                                             1 	(obj:4)
t_x_613                                             1 	(obj:14)
t_x_614                                             1 	(obj:1)
t_x_615                                             1 	(obj:8)
t_x_618                                             1 	(obj:21)
t_x_623                                             1 	(obj:10)
t_x_624                                             1 	(obj:13)
t_x_625                                             1 	(obj:3)
t_x_627                                             1 	(obj:18)
t_x_634                                             1 	(obj:18)
t_x_635                                             1 	(obj:1)
t_x_644                                             1 	(obj:37)
t_x_652                                             1 	(obj:3)
t_x_657                                             1 	(obj:15)
t_x_658                                             1 	(obj:15)
t_x_661                                             1 	(obj:10)
t_x_662                                             1 	(obj:29)
t_x_663                                             1 	(obj:1)
t_x_665                                             1 	(obj:33)
t_x_667                                             1 	(obj:12)
t_x_670                                             1 	(obj:13)
t_x_676                                             1 	(obj:64)
t_x_680                                             1 	(obj:35)
t_x_682                                             1 	(obj:41)
t_x_684                                             1 	(obj:51)
t_x_685                                             1 	(obj:36)
t_x_690                                             1 	(obj:39)
t_x_691                                             1 	(obj:33)
t_x_692                                             1 	(obj:58)
t_x_694                                             1 	(obj:38)
t_x_700                                             1 	(obj:18)
t_x_701                                             1 	(obj:8)
t_x_707                                             1 	(obj:43)
t_x_708                                             1 	(obj:7)
t_x_713                                             1 	(obj:3)
t_x_716                                             1 	(obj:53)
t_x_720                                             1 	(obj:59)
t_x_724                                             1 	(obj:5)
t_x_725                                             1 	(obj:30)
t_x_726                                             1 	(obj:1)
t_x_730                                             1 	(obj:45)
t_x_732                                             1 	(obj:18)
t_x_739                                             1 	(obj:9)
t_x_742                                             1 	(obj:26)
t_x_747                                             1 	(obj:7)
t_x_749                                             1 	(obj:10)
t_x_752                                             1 	(obj:17)
t_x_755                                             1 	(obj:4)
t_x_758                                             1 	(obj:0)
t_x_759                                             1 	(obj:11)
t_x_760                                             1 	(obj:5)
t_x_761                                             1 	(obj:33)
t_x_765                                             1 	(obj:19)
t_x_767                                             1 	(obj:13)
t_x_771                                             1 	(obj:8)
t_x_773                                             1 	(obj:8)
t_x_774                                             1 	(obj:8)
t_x_775                                             1 	(obj:5)
t_x_779                                             1 	(obj:30)
t_x_780                                             1 	(obj:34)
t_x_781                                             1 	(obj:3)
t_x_782                                             1 	(obj:17)
t_x_789                                             1 	(obj:37)
t_x_798                                             1 	(obj:3)
t_x_802                                             1 	(obj:8)
t_x_806                                             1 	(obj:20)
t_x_809                                             1 	(obj:5)
t_x_811                                             1 	(obj:7)
t_x_812                                             1 	(obj:21)
t_x_821                                             1 	(obj:2)
t_x_822                                             1 	(obj:24)
t_x_824                                             1 	(obj:27)
t_x_831                                             1 	(obj:21)
t_x_833                                             1 	(obj:5)
t_x_834                                             1 	(obj:0)
t_x_835                                             1 	(obj:11)
t_x_838                                             1 	(obj:38)
t_x_839                                             1 	(obj:2)
t_x_841                                             1 	(obj:6)
t_x_842                                             1 	(obj:41)
t_x_843                                             1 	(obj:3)
t_x_853                                             1 	(obj:20)
t_x_854                                             1 	(obj:1)
t_x_856                                             1 	(obj:8)
t_x_857                                             1 	(obj:47)
t_x_859                                             1 	(obj:37)
t_x_869                                             1 	(obj:10)
t_x_870                                             1 	(obj:38)
t_x_873                                             1 	(obj:27)
t_x_878                                             1 	(obj:14)
t_x_881                                             1 	(obj:14)
t_x_886                                             1 	(obj:26)
t_x_898                                             1 	(obj:23)
t_x_899                                             1 	(obj:8)
t_x_903                                             1 	(obj:39)
t_x_906                                             1 	(obj:20)
t_x_907                                             1 	(obj:0)
t_x_909                                             1 	(obj:0)
t_x_910                                             1 	(obj:35)
t_x_912                                             1 	(obj:9)
t_x_916                                             1 	(obj:11)
t_x_924                                             1 	(obj:30)
t_x_933                                             1 	(obj:9)
t_x_934                                             1 	(obj:7)
t_x_935                                             1 	(obj:23)
t_x_943                                             1 	(obj:13)
t_x_947                                             1 	(obj:1)
t_x_951                                             1 	(obj:6)
t_x_953                                             1 	(obj:0)
t_x_956                                             1 	(obj:49)
t_x_957                                             1 	(obj:6)
t_x_959                                             1 	(obj:25)
t_x_962                                             1 	(obj:3)
t_x_963                                             1 	(obj:11)
t_x_966                                             1 	(obj:21)
t_x_970                                             1 	(obj:26)
t_x_972                                             1 	(obj:31)
t_x_974                                             1 	(obj:0)
t_x_979                                             1 	(obj:18)
t_x_981                                             1 	(obj:39)
t_x_983                                             1 	(obj:3)
t_x_993                                             1 	(obj:49)
t_x_1000                                            1 	(obj:33)
t_x_1004                                            1 	(obj:4)
t_x_1012                                            1 	(obj:0)
t_x_1015                                            1 	(obj:2)
t_x_1019                                            1 	(obj:6)
t_x_1021                                            1 	(obj:3)
t_x_1023                                            1 	(obj:4)
t_x_1024                                            1 	(obj:19)
t_x_1025                                            1 	(obj:8)
t_x_1032                                            1 	(obj:7)
t_x_1043                                            1 	(obj:20)
t_x_1045                                            1 	(obj:11)
t_x_1046                                            1 	(obj:26)
t_x_1048                                            1 	(obj:9)
t_x_1054                                            1 	(obj:24)
t_x_1057                                            1 	(obj:0)
t_x_1060                                            1 	(obj:29)
t_x_1072                                            1 	(obj:61)
t_x_1076                                            1 	(obj:22)
t_x_1078                                            1 	(obj:23)
t_x_1080                                            1 	(obj:9)
t_x_1086                                            1 	(obj:43)
t_x_1088                                            1 	(obj:3)
t_x_1093                                            1 	(obj:31)
t_x_1094                                            1 	(obj:4)
t_x_1099                                            1 	(obj:42)
t_x_1100                                            1 	(obj:34)
t_x_1102                                            1 	(obj:1)
t_x_1103                                            1 	(obj:19)
t_x_1108                                            1 	(obj:0)
t_x_1112                                            1 	(obj:17)
t_x_1114                                            1 	(obj:5)
t_x_1115                                            1 	(obj:44)
t_x_1117                                            1 	(obj:16)
t_x_1119                                            1 	(obj:17)
t_x_1122                                            1 	(obj:57)
t_x_1128                                            1 	(obj:0)
t_x_1133                                            1 	(obj:15)
t_x_1134                                            1 	(obj:9)
t_x_1136                                            1 	(obj:11)
t_x_1149                                            1 	(obj:28)
t_x_1154                                            1 	(obj:57)
t_x_1159                                            1 	(obj:14)
t_x_1160                                            1 	(obj:19)
t_x_1163                                            1 	(obj:1)
t_x_1178                                            1 	(obj:24)
t_x_1179                                            1 	(obj:9)
t_x_1181                                            1 	(obj:19)
t_x_1182                                            1 	(obj:19)
t_x_1186                                            1 	(obj:43)
t_x_1189                                            1 	(obj:33)
t_x_1193                                            1 	(obj:7)
t_x_1197                                            1 	(obj:17)
t_x_1198                                            1 	(obj:7)
t_x_1202                                            1 	(obj:28)
t_x_1204                                            1 	(obj:30)
t_x_1205                                            1 	(obj:24)
t_x_1213                                            1 	(obj:1)
t_x_1217                                            1 	(obj:5)
t_x_1231                                            1 	(obj:1)
t_x_1232                                            1 	(obj:65)
t_x_1234                                            1 	(obj:20)
t_x_1236                                            1 	(obj:38)
t_x_1246                                            1 	(obj:6)
t_x_1247                                            1 	(obj:12)
t_x_1248                                            1 	(obj:1)
t_x_1250                                            1 	(obj:10)
t_x_1251                                            1 	(obj:21)
t_x_1252                                            1 	(obj:13)
t_x_1255                                            1 	(obj:33)
t_x_1259                                            1 	(obj:14)
t_x_1263                                            1 	(obj:18)
t_x_1273                                            1 	(obj:5)
t_x_1274                                            1 	(obj:16)
t_x_1278                                            1 	(obj:22)
t_x_1285                                            1 	(obj:11)
t_x_1296                                            1 	(obj:27)
t_x_1301                                            1 	(obj:13)
t_x_1306                                            1 	(obj:6)
t_x_1307                                            1 	(obj:54)
t_x_1308                                            1 	(obj:20)
t_x_1309                                            1 	(obj:6)
t_x_1317                                            1 	(obj:9)
t_x_1318                                            1 	(obj:7)
t_x_1321                                            1 	(obj:2)
t_x_1322                                            1 	(obj:26)
t_x_1323                                            1 	(obj:3)
t_x_1324                                            1 	(obj:18)
t_x_1325                                            1 	(obj:4)
t_x_1332                                            1 	(obj:6)
t_x_1333                                            1 	(obj:32)
t_x_1334                                            1 	(obj:1)
t_x_1337                                            1 	(obj:11)
t_x_1341                                            1 	(obj:16)
t_x_1345                                            1 	(obj:16)
t_x_1350                                            1 	(obj:40)
t_x_1352                                            1 	(obj:16)
t_x_1356                                            1 	(obj:5)
t_x_1363                                            1 	(obj:6)
t_x_1368                                            1 	(obj:20)
t_x_1369                                            1 	(obj:37)
t_x_1373                                            1 	(obj:2)
t_x_1379                                            1 	(obj:4)
t_x_1381                                            1 	(obj:26)
t_x_1386                                            1 	(obj:27)
t_x_1388                                            1 	(obj:47)
t_x_1390                                            1 	(obj:10)
t_x_1392                                            1 	(obj:22)
t_x_1398                                            1 	(obj:12)
t_x_1399                                            1 	(obj:0)
t_x_1400                                            1 	(obj:24)
t_x_1401                                            1 	(obj:14)
t_x_1403                                            1 	(obj:22)
t_x_1404                                            1 	(obj:0)
t_x_1422                                            1 	(obj:18)
t_x_1424                                            1 	(obj:34)
t_x_1426                                            1 	(obj:7)
t_x_1432                                            1 	(obj:16)
t_x_1433                                            1 	(obj:24)
t_x_1436                                            1 	(obj:12)
t_x_1442                                            1 	(obj:15)
t_x_1444                                            1 	(obj:47)
t_x_1468                                            1 	(obj:19)
t_x_1472                                            1 	(obj:14)
t_x_1473                                            1 	(obj:5)
t_x_1475                                            1 	(obj:14)
t_x_1477                                            1 	(obj:31)
t_x_1490                                            1 	(obj:21)
t_x_1495                                            1 	(obj:47)
t_x_1496                                            1 	(obj:6)
t_x_1501                                            1 	(obj:27)
t_x_1502                                            1 	(obj:41)
t_x_1503                                            1 	(obj:41)
t_x_1512                                            1 	(obj:93)
t_x_1529                                            1 	(obj:6)
t_x_1531                                            1 	(obj:26)
t_x_1538                                            1 	(obj:28)
t_x_1539                                            1 	(obj:5)
t_x_1541                                            1 	(obj:53)
t_x_1548                                            1 	(obj:28)
t_x_1552                                            1 	(obj:6)
t_x_1557                                            1 	(obj:4)
t_x_1562                                            1 	(obj:35)
t_x_1575                                            1 	(obj:17)
t_x_1576                                            1 	(obj:14)
t_x_1579                                            1 	(obj:19)
t_x_1583                                            1 	(obj:15)
t_x_1585                                            1 	(obj:37)
t_x_1590                                            1 	(obj:8)
t_x_1592                                            1 	(obj:14)
t_x_1594                                            1 	(obj:3)
t_x_1597                                            1 	(obj:27)
t_x_1599                                            1 	(obj:21)
t_x_1600                                            1 	(obj:10)
t_x_1605                                            1 	(obj:25)
t_x_1609                                            1 	(obj:32)
t_x_1611                                            1 	(obj:12)
t_x_1616                                            1 	(obj:4)
t_x_1618                                            1 	(obj:20)
t_x_1622                                            1 	(obj:21)
t_x_1624                                            1 	(obj:0)
t_x_1627                                            1 	(obj:27)
t_x_1628                                            1 	(obj:28)
t_x_1633                                            1 	(obj:6)
t_x_1637                                            1 	(obj:19)
t_x_1642                                            1 	(obj:19)
t_x_1646                                            1 	(obj:34)
t_x_1648                                            1 	(obj:81)
t_x_1652                                            1 	(obj:34)
t_x_1653                                            1 	(obj:24)
t_x_1654                                            1 	(obj:9)
t_x_1657                                            1 	(obj:10)
t_x_1663                                            1 	(obj:4)
t_x_1665                                            1 	(obj:16)
t_x_1667                                            1 	(obj:1)
t_x_1668                                            1 	(obj:3)
t_x_1670                                            1 	(obj:7)
t_x_1677                                            1 	(obj:22)
t_x_1681                                            1 	(obj:14)
t_x_1683                                            1 	(obj:18)
t_x_1689                                            1 	(obj:11)
t_x_1691                                            1 	(obj:13)
t_x_1713                                            1 	(obj:7)
t_x_1715                                            1 	(obj:25)
t_x_1720                                            1 	(obj:53)
t_x_1721                                            1 	(obj:28)
t_x_1722                                            1 	(obj:20)
t_x_1724                                            1 	(obj:26)
t_x_1725                                            1 	(obj:39)
t_x_1731                                            1 	(obj:28)
t_x_1733                                            1 	(obj:6)
t_x_1734                                            1 	(obj:5)
t_x_1736                                            1 	(obj:9)
t_x_1745                                            1 	(obj:17)
t_x_1746                                            1 	(obj:18)
t_x_1748                                            1 	(obj:15)
t_x_1755                                            1 	(obj:5)
t_x_1756                                            1 	(obj:0)
t_x_1758                                            1 	(obj:30)
t_x_1760                                            1 	(obj:3)
t_x_1762                                            1 	(obj:29)
t_x_1767                                            1 	(obj:12)
t_x_1768                                            1 	(obj:9)
t_x_1769                                            1 	(obj:10)
t_x_1772                                            1 	(obj:5)
t_x_1773                                            1 	(obj:10)
t_x_1778                                            1 	(obj:26)
t_x_1780                                            1 	(obj:16)
t_x_1790                                            1 	(obj:11)
t_x_1794                                            1 	(obj:5)
t_x_1796                                            1 	(obj:10)
t_x_1803                                            1 	(obj:46)
t_x_1804                                            1 	(obj:29)
t_x_1807                                            1 	(obj:3)
t_x_1808                                            1 	(obj:6)
t_x_1811                                            1 	(obj:13)
t_x_1813                                            1 	(obj:8)
t_x_1814                                            1 	(obj:30)
t_x_1816                                            1 	(obj:7)
t_x_1817                                            1 	(obj:39)
t_x_1820                                            1 	(obj:34)
t_x_1825                                            1 	(obj:25)
t_x_1826                                            1 	(obj:6)
t_x_1827                                            1 	(obj:9)
t_x_1829                                            1 	(obj:3)
t_x_1831                                            1 	(obj:6)
t_x_1833                                            1 	(obj:9)
t_x_1835                                            1 	(obj:0)
t_x_1841                                            1 	(obj:11)
t_x_1842                                            1 	(obj:4)
t_x_1846                                            1 	(obj:32)
t_x_1847                                            1 	(obj:1)
t_x_1849                                            1 	(obj:13)
t_x_1850                                            1 	(obj:6)
t_x_1851                                            1 	(obj:20)
t_x_1855                                            1 	(obj:13)
t_x_1858                                            1 	(obj:49)
t_x_1859                                            1 	(obj:9)
t_x_1860                                            1 	(obj:18)
t_x_1862                                            1 	(obj:25)
t_x_1867                                            1 	(obj:53)
t_x_1878                                            1 	(obj:3)
t_x_1884                                            1 	(obj:26)
t_x_1887                                            1 	(obj:27)
t_x_1890                                            1 	(obj:14)
t_x_1892                                            1 	(obj:6)
t_x_1899                                            1 	(obj:9)
t_x_1904                                            1 	(obj:20)
t_x_1905                                            1 	(obj:31)
t_x_1909                                            1 	(obj:11)
t_x_1910                                            1 	(obj:51)
t_x_1913                                            1 	(obj:9)
t_x_1916                                            1 	(obj:34)
t_x_1918                                            1 	(obj:22)
t_x_1919                                            1 	(obj:7)
t_x_1921                                            1 	(obj:8)
t_x_1923                                            1 	(obj:1)
t_x_1924                                            1 	(obj:62)
t_x_1925                                            1 	(obj:2)
t_x_1926                                            1 	(obj:11)
t_x_1928                                            1 	(obj:20)
t_x_1929                                            1 	(obj:2)
t_x_1934                                            1 	(obj:8)
t_x_1937                                            1 	(obj:48)
t_x_1941                                            1 	(obj:11)
t_x_1942                                            1 	(obj:1)
t_x_1948                                            1 	(obj:18)
t_x_1949                                            1 	(obj:14)
t_x_1950                                            1 	(obj:22)
t_x_1952                                            1 	(obj:26)
t_x_1954                                            1 	(obj:55)
t_x_1959                                            1 	(obj:18)
t_x_1961                                            1 	(obj:72)
t_x_1962                                            1 	(obj:0)
t_x_1963                                            1 	(obj:3)
t_x_1964                                            1 	(obj:2)
t_x_1967                                            1 	(obj:59)
t_x_1969                                            1 	(obj:4)
t_x_1971                                            1 	(obj:18)
t_x_1973                                            1 	(obj:20)
t_x_1975                                            1 	(obj:2)
t_x_1981                                            1 	(obj:30)
t_x_1982                                            1 	(obj:19)
t_x_1988                                            1 	(obj:33)
t_x_1989                                            1 	(obj:11)
t_x_1990                                            1 	(obj:20)
t_x_1991                                            1 	(obj:5)
t_x_1999                                            1 	(obj:7)
